c A SAT instance generated from a 3-CNF formula that had 16 clauses and 4 variables
p cnf 4 16
2 3 -4 0
1 -3 -4 0
-1 3 4 0
-2 -1 -4 0
-2 1 -3 0
1 4 -2 0
4 2 3 0
-2 4 1 0
-3 1 2 0
1 4 3 0
4 2 -1 0
3 4 -2 0
-3 -2 1 0
3 -1 4 0
4 1 -3 0
1 4 -3 0
